solution status: optimal solution found
objective value:                                   27
x60                                                 1 	(obj:1)
x61                                                 1 	(obj:1)
x62                                                 1 	(obj:1)
x64                                                 1 	(obj:1)
x65                                                 1 	(obj:1)
x67                                                 1 	(obj:1)
x72                                                 1 	(obj:1)
x74                                                 1 	(obj:1)
x79                                                 1 	(obj:1)
x93                                                 1 	(obj:1)
x95                                                 1 	(obj:1)
x100                                                1 	(obj:1)
x102                                                1 	(obj:1)
x105                                                1 	(obj:1)
x114                                                1 	(obj:1)
x116                                                1 	(obj:1)
x134                                                1 	(obj:1)
x135                                                1 	(obj:1)
x136                                                1 	(obj:1)
x138                                                1 	(obj:1)
x141                                                1 	(obj:1)
x143                                                1 	(obj:1)
x150                                                1 	(obj:1)
x152                                                1 	(obj:1)
x153                                                1 	(obj:1)
x156                                                1 	(obj:1)
x157                                                1 	(obj:1)
thingy.thingy.chamber[2].first.ring_y                   20 	(obj:0)
thingy.thingy.chamber[2].first.ring_z                   13 	(obj:0)
thingy.thingy.prep.v2_y                            19 	(obj:0)
thingy.thingy.prep.v2_z                            19 	(obj:0)
thingy.thingy.chamber[2].first.vring_out_y                   20 	(obj:0)
thingy.thingy.chamber[2].first.vring_out_z                   12 	(obj:0)
thingy.thingy.chamber[3].first.vpump3.valves[0].vinlet_y                   22 	(obj:0)
thingy.thingy.chamber[3].first.vpump3.valves[0].vinlet_z                   16 	(obj:0)
thingy.ctrl_prep_inlet_hole_y                      17 	(obj:0)
thingy.ctrl_prep_inlet_hole_z                      17 	(obj:0)
thingy.thingy.chamber[3].first.voutlet_y                   23 	(obj:0)
thingy.thingy.chamber[3].first.voutlet_z                   17 	(obj:0)
thingy.thingy.chamber[2].first.vpump3.valves[0].vinlet_y                   22 	(obj:0)
thingy.thingy.chamber[2].first.vpump3.valves[0].vinlet_z                   14 	(obj:0)
thingy.thingy.chamber[1].first.voutlet_y                   24 	(obj:0)
thingy.thingy.chamber[1].first.voutlet_z                   17 	(obj:0)
thingy.thingy.chamber[3].first.ring_y                   19 	(obj:0)
thingy.thingy.chamber[3].first.ring_z                   14 	(obj:0)
thingy.pump_pinholes[1].hole_y                     19 	(obj:0)
thingy.pump_pinholes[1].hole_z                     16 	(obj:0)
thingy.flush_pump_pinholes[1].hole_y                   19 	(obj:0)
thingy.flush_pump_pinholes[1].hole_z                   13 	(obj:0)
thingy.thingy.chamber[1].first.ring_y                   23 	(obj:0)
thingy.thingy.chamber[1].first.ring_z                   14 	(obj:0)
thingy.thingy.prep.v1_y                            20 	(obj:0)
thingy.thingy.prep.v1_z                            19 	(obj:0)
thingy.flush_prep_inlet_hole_y                     16 	(obj:0)
thingy.flush_prep_inlet_hole_z                     17 	(obj:0)
thingy.thingy.chamber[2].first.voutlet_y                   24 	(obj:0)
thingy.thingy.chamber[2].first.voutlet_z                   13 	(obj:0)
thingy.thingy.chamber[3].first.vring_out_y                   22 	(obj:0)
thingy.thingy.chamber[3].first.vring_out_z                   11 	(obj:0)
thingy.thingy.chamber[0].first.ring_y                   21 	(obj:0)
thingy.thingy.chamber[0].first.ring_z                   17 	(obj:0)
thingy.thingy.chamber[1].first.vring_out_y                   20 	(obj:0)
thingy.thingy.chamber[1].first.vring_out_z                   15 	(obj:0)
thingy.thingy.prep.vout1_y                         20 	(obj:0)
thingy.thingy.prep.vout1_z                         21 	(obj:0)
thingy.pump_pinholes[0].hole_y                     18 	(obj:0)
thingy.pump_pinholes[0].hole_z                     14 	(obj:0)
thingy.thingy.chamber[0].first.vpump3.valves[0].vinlet_y                   23 	(obj:0)
thingy.thingy.chamber[0].first.vpump3.valves[0].vinlet_z                   18 	(obj:0)
thingy.flush_pump_pinholes[0].hole_y                   18 	(obj:0)
thingy.flush_pump_pinholes[0].hole_z                   11 	(obj:0)
thingy.thingy.chamber[1].first.vpump3.valves[0].vinlet_y                   22 	(obj:0)
thingy.thingy.chamber[1].first.vpump3.valves[0].vinlet_z                   17 	(obj:0)
thingy.thingy.chamber[0].first.vring_out_y                   22 	(obj:0)
thingy.thingy.chamber[0].first.vring_out_z                   15 	(obj:0)
thingy.thingy.chamber[0].first.voutlet_y                   23 	(obj:0)
thingy.thingy.chamber[0].first.voutlet_z                   20 	(obj:0)
